(set-logic QF_S)
(declare-fun var0 () String)
(assert (str.in.re var0 (re.++ (re.union (re.* (str.to.re "00")) (re.union (str.to.re "11") (str.to.re "22"))) (re.++ (re.+ (re.union (str.to.re "3") (str.to.re "44"))) (re.++ (re.+ (re.+ (str.to.re "55"))) (re.++ (re.union (re.union (str.to.re "6") (str.to.re "7")) (re.+ (str.to.re "88"))) (re.++ (re.union (re.union (str.to.re "9") (str.to.re "a")) (re.* (str.to.re "bbb"))) (re.++ (re.+ (re.* (str.to.re "cc"))) (re.++ (re.* (re.+ (str.to.re "ddd"))) (re.++ (re.union (re.+ (str.to.re "e")) (re.+ (str.to.re "f"))) (re.++ (re.union (re.union (str.to.re "g") (str.to.re "hh")) (re.union (str.to.re "i") (str.to.re "j"))) (re.++ (re.union (re.union (str.to.re "kk") (str.to.re "ll")) (re.+ (str.to.re "mm"))) (re.++ (re.union (re.+ (str.to.re "n")) (re.+ (str.to.re "o"))) (re.++ (re.* (re.* (str.to.re "p"))) (re.++ (re.union (re.+ (str.to.re "q")) (re.+ (str.to.re "rrr"))) (re.++ (re.+ (re.* (str.to.re "s"))) (re.++ (re.* (re.+ (str.to.re "ttt"))) (re.++ (re.+ (re.union (str.to.re "uu") (str.to.re "vvv"))) (re.++ (re.union (re.+ (str.to.re "ww")) (re.+ (str.to.re "xxx"))) (re.++ (re.+ (re.union (str.to.re "y") (str.to.re "zzz"))) (re.++ (re.+ (re.union (str.to.re "AA") (str.to.re "BB"))) (re.++ (re.union (re.* (str.to.re "CC")) (re.+ (str.to.re "DDD"))) (re.++ (re.* (re.union (str.to.re "EE") (str.to.re "FFF"))) (re.++ (re.union (re.* (str.to.re "GG")) (re.* (str.to.re "H"))) (re.++ (re.+ (re.* (str.to.re "III"))) (re.++ (re.union (re.* (str.to.re "JJ")) (re.* (str.to.re "KK"))) (re.++ (re.+ (re.+ (str.to.re "LLL"))) (re.++ (re.* (re.union (str.to.re "MMM") (str.to.re "NNN"))) (re.++ (re.* (re.* (str.to.re "OO"))) (re.++ (re.union (re.* (str.to.re "P")) (re.union (str.to.re "QQ") (str.to.re "RR"))) (re.++ (re.* (re.+ (str.to.re "S"))) (re.++ (re.* (re.* (str.to.re "TT"))) (re.++ (re.* (re.union (str.to.re "UU") (str.to.re "VV"))) (re.++ (re.union (re.* (str.to.re "WW")) (re.* (str.to.re "XXX"))) (re.++ (re.* (re.union (str.to.re "YYY") (str.to.re "Z"))) (re.++ (re.* (re.+ (str.to.re "!"))) (re.++ (re.* (re.* (str.to.re """"""))) (re.++ (re.+ (re.* (str.to.re "#"))) (re.++ (re.* (re.* (str.to.re "$$$"))) (re.++ (re.union (re.* (str.to.re "%%%")) (re.union (str.to.re "&&") (str.to.re "'"))) (re.++ (re.union (re.+ (str.to.re "(")) (re.+ (str.to.re ")))"))) (re.++ (re.+ (re.union (str.to.re "**") (str.to.re "++"))) (re.++ (re.union (re.+ (str.to.re ",")) (re.union (str.to.re "---") (str.to.re ".."))) (re.++ (re.union (re.+ (str.to.re "//")) (re.* (str.to.re ":"))) (re.++ (re.+ (re.* (str.to.re ";;"))) (re.++ (re.* (re.+ (str.to.re "<<"))) (re.++ (re.+ (re.+ (str.to.re "==="))) (re.++ (re.+ (re.+ (str.to.re ">>>"))) (re.++ (re.+ (re.* (str.to.re "???"))) (re.++ (re.+ (re.union (str.to.re "@@@") (str.to.re "[[["))) (re.++ (re.* (re.* (str.to.re "\\\\"))) (re.++ (re.* (re.union (str.to.re "]") (str.to.re "^^"))) (re.* (re.* (str.to.re "___")))))))))))))))))))))))))))))))))))))))))))))))))))))))
(assert (not (str.in.re var0 (re.++ (re.+ (re.union (str.to.re "000") (str.to.re "1"))) (re.++ (re.* (re.+ (str.to.re "2"))) (re.++ (re.* (re.union (str.to.re "33") (str.to.re "44"))) (re.++ (re.+ (re.* (str.to.re "55"))) (re.++ (re.* (re.* (str.to.re "6"))) (re.++ (re.union (re.+ (str.to.re "777")) (re.* (str.to.re "88"))) (re.++ (re.union (re.union (str.to.re "999") (str.to.re "a")) (re.* (str.to.re "b"))) (re.++ (re.+ (re.* (str.to.re "cc"))) (re.++ (re.+ (re.+ (str.to.re "ddd"))) (re.++ (re.+ (re.union (str.to.re "eee") (str.to.re "fff"))) (re.++ (re.+ (re.* (str.to.re "gg"))) (re.++ (re.* (re.+ (str.to.re "hh"))) (re.++ (re.union (re.+ (str.to.re "i")) (re.+ (str.to.re "j"))) (re.++ (re.union (re.* (str.to.re "k")) (re.+ (str.to.re "ll"))) (re.++ (re.union (re.* (str.to.re "m")) (re.+ (str.to.re "nn"))) (re.++ (re.union (re.union (str.to.re "oo") (str.to.re "ppp")) (re.union (str.to.re "qq") (str.to.re "r"))) (re.++ (re.union (re.union (str.to.re "sss") (str.to.re "ttt")) (re.* (str.to.re "uu"))) (re.++ (re.* (re.+ (str.to.re "vvv"))) (re.++ (re.* (re.* (str.to.re "www"))) (re.++ (re.union (re.* (str.to.re "xx")) (re.* (str.to.re "y"))) (re.++ (re.+ (re.+ (str.to.re "zz"))) (re.++ (re.* (re.union (str.to.re "AA") (str.to.re "B"))) (re.++ (re.+ (re.* (str.to.re "C"))) (re.++ (re.+ (re.+ (str.to.re "D"))) (re.++ (re.* (re.union (str.to.re "E") (str.to.re "F"))) (re.++ (re.+ (re.* (str.to.re "G"))) (re.++ (re.* (re.+ (str.to.re "HHH"))) (re.++ (re.* (re.union (str.to.re "III") (str.to.re "J"))) (re.++ (re.* (re.union (str.to.re "KK") (str.to.re "LLL"))) (re.++ (re.+ (re.+ (str.to.re "MM"))) (re.++ (re.+ (re.* (str.to.re "NN"))) (re.++ (re.* (re.+ (str.to.re "O"))) (re.++ (re.* (re.union (str.to.re "PPP") (str.to.re "QQQ"))) (re.++ (re.union (re.union (str.to.re "R") (str.to.re "S")) (re.union (str.to.re "TTT") (str.to.re "UUU"))) (re.++ (re.+ (re.* (str.to.re "VV"))) (re.++ (re.+ (re.+ (str.to.re "WW"))) (re.++ (re.* (re.union (str.to.re "XX") (str.to.re "Y"))) (re.++ (re.union (re.+ (str.to.re "ZZZ")) (re.* (str.to.re "!"))) (re.++ (re.* (re.union (str.to.re """""""") (str.to.re "###"))) (re.++ (re.union (re.+ (str.to.re "$$$")) (re.+ (str.to.re "%"))) (re.++ (re.* (re.+ (str.to.re "&&"))) (re.++ (re.+ (re.union (str.to.re "'''") (str.to.re "("))) (re.++ (re.+ (re.union (str.to.re "))") (str.to.re "*"))) (re.++ (re.+ (re.* (str.to.re "+++"))) (re.++ (re.union (re.* (str.to.re ",,,")) (re.* (str.to.re "---"))) (re.++ (re.* (re.* (str.to.re ".."))) (re.++ (re.union (re.union (str.to.re "//") (str.to.re ":")) (re.union (str.to.re ";;") (str.to.re "<<"))) (re.++ (re.+ (re.+ (str.to.re "="))) (re.++ (re.+ (re.union (str.to.re ">") (str.to.re "???"))) (re.++ (re.* (re.+ (str.to.re "@@"))) (re.* (re.union (str.to.re "[[[") (str.to.re "\\\\\\"))))))))))))))))))))))))))))))))))))))))))))))))))))))))
(check-sat)